certificates/rado_a5_c249_N49.cnf
c Rad2 upper bound instance: x1 + 5*x2 - x3 = 249, interval [1,49]
p cnf 49 450
1 5 49 0
-1 -5 -49 0
2 6 49 0
-2 -6 -49 0
3 7 49 0
-3 -7 -49 0
4 8 49 0
-4 -8 -49 0
5 9 49 0
-5 -9 -49 0
1 10 48 0
-1 -10 -48 0
6 10 49 0
-6 -10 -49 0
2 11 48 0
-2 -11 -48 0
7 11 49 0
-7 -11 -49 0
3 12 48 0
-3 -12 -48 0
8 12 49 0
-8 -12 -49 0
4 13 48 0
-4 -13 -48 0
9 13 49 0
-9 -13 -49 0
5 14 48 0
-5 -14 -48 0
10 14 49 0
-10 -14 -49 0
1 15 47 0
-1 -15 -47 0
6 15 48 0
-6 -15 -48 0
11 15 49 0
-11 -15 -49 0
2 16 47 0
-2 -16 -47 0
7 16 48 0
-7 -16 -48 0
12 16 49 0
-12 -16 -49 0
3 17 47 0
-3 -17 -47 0
8 17 48 0
-8 -17 -48 0
13 17 49 0
-13 -17 -49 0
4 18 47 0
-4 -18 -47 0
9 18 48 0
-9 -18 -48 0
14 18 49 0
-14 -18 -49 0
5 19 47 0
-5 -19 -47 0
10 19 48 0
-10 -19 -48 0
15 19 49 0
-15 -19 -49 0
1 20 46 0
-1 -20 -46 0
6 20 47 0
-6 -20 -47 0
11 20 48 0
-11 -20 -48 0
16 20 49 0
-16 -20 -49 0
2 21 46 0
-2 -21 -46 0
7 21 47 0
-7 -21 -47 0
12 21 48 0
-12 -21 -48 0
17 21 49 0
-17 -21 -49 0
3 22 46 0
-3 -22 -46 0
8 22 47 0
-8 -22 -47 0
13 22 48 0
-13 -22 -48 0
18 22 49 0
-18 -22 -49 0
4 23 46 0
-4 -23 -46 0
9 23 47 0
-9 -23 -47 0
14 23 48 0
-14 -23 -48 0
19 23 49 0
-19 -23 -49 0
5 24 46 0
-5 -24 -46 0
10 24 47 0
-10 -24 -47 0
15 24 48 0
-15 -24 -48 0
20 24 49 0
-20 -24 -49 0
1 25 45 0
-1 -25 -45 0
6 25 46 0
-6 -25 -46 0
11 25 47 0
-11 -25 -47 0
16 25 48 0
-16 -25 -48 0
21 25 49 0
-21 -25 -49 0
2 26 45 0
-2 -26 -45 0
7 26 46 0
-7 -26 -46 0
12 26 47 0
-12 -26 -47 0
17 26 48 0
-17 -26 -48 0
22 26 49 0
-22 -26 -49 0
3 27 45 0
-3 -27 -45 0
8 27 46 0
-8 -27 -46 0
13 27 47 0
-13 -27 -47 0
18 27 48 0
-18 -27 -48 0
23 27 49 0
-23 -27 -49 0
4 28 45 0
-4 -28 -45 0
9 28 46 0
-9 -28 -46 0
14 28 47 0
-14 -28 -47 0
19 28 48 0
-19 -28 -48 0
24 28 49 0
-24 -28 -49 0
5 29 45 0
-5 -29 -45 0
10 29 46 0
-10 -29 -46 0
15 29 47 0
-15 -29 -47 0
20 29 48 0
-20 -29 -48 0
25 29 49 0
-25 -29 -49 0
1 30 44 0
-1 -30 -44 0
6 30 45 0
-6 -30 -45 0
11 30 46 0
-11 -30 -46 0
16 30 47 0
-16 -30 -47 0
21 30 48 0
-21 -30 -48 0
26 30 49 0
-26 -30 -49 0
2 31 44 0
-2 -31 -44 0
7 31 45 0
-7 -31 -45 0
12 31 46 0
-12 -31 -46 0
17 31 47 0
-17 -31 -47 0
22 31 48 0
-22 -31 -48 0
27 31 49 0
-27 -31 -49 0
3 32 44 0
-3 -32 -44 0
8 32 45 0
-8 -32 -45 0
13 32 46 0
-13 -32 -46 0
18 32 47 0
-18 -32 -47 0
23 32 48 0
-23 -32 -48 0
28 32 49 0
-28 -32 -49 0
4 33 44 0
-4 -33 -44 0
9 33 45 0
-9 -33 -45 0
14 33 46 0
-14 -33 -46 0
19 33 47 0
-19 -33 -47 0
24 33 48 0
-24 -33 -48 0
29 33 49 0
-29 -33 -49 0
5 34 44 0
-5 -34 -44 0
10 34 45 0
-10 -34 -45 0
15 34 46 0
-15 -34 -46 0
20 34 47 0
-20 -34 -47 0
25 34 48 0
-25 -34 -48 0
30 34 49 0
-30 -34 -49 0
1 35 43 0
-1 -35 -43 0
6 35 44 0
-6 -35 -44 0
11 35 45 0
-11 -35 -45 0
16 35 46 0
-16 -35 -46 0
21 35 47 0
-21 -35 -47 0
26 35 48 0
-26 -35 -48 0
31 35 49 0
-31 -35 -49 0
2 36 43 0
-2 -36 -43 0
7 36 44 0
-7 -36 -44 0
12 36 45 0
-12 -36 -45 0
17 36 46 0
-17 -36 -46 0
22 36 47 0
-22 -36 -47 0
27 36 48 0
-27 -36 -48 0
32 36 49 0
-32 -36 -49 0
3 37 43 0
-3 -37 -43 0
8 37 44 0
-8 -37 -44 0
13 37 45 0
-13 -37 -45 0
18 37 46 0
-18 -37 -46 0
23 37 47 0
-23 -37 -47 0
28 37 48 0
-28 -37 -48 0
33 37 49 0
-33 -37 -49 0
4 38 43 0
-4 -38 -43 0
9 38 44 0
-9 -38 -44 0
14 38 45 0
-14 -38 -45 0
19 38 46 0
-19 -38 -46 0
24 38 47 0
-24 -38 -47 0
29 38 48 0
-29 -38 -48 0
34 38 49 0
-34 -38 -49 0
5 39 43 0
-5 -39 -43 0
10 39 44 0
-10 -39 -44 0
15 39 45 0
-15 -39 -45 0
20 39 46 0
-20 -39 -46 0
25 39 47 0
-25 -39 -47 0
30 39 48 0
-30 -39 -48 0
35 39 49 0
-35 -39 -49 0
1 40 42 0
-1 -40 -42 0
6 40 43 0
-6 -40 -43 0
11 40 44 0
-11 -40 -44 0
16 40 45 0
-16 -40 -45 0
21 40 46 0
-21 -40 -46 0
26 40 47 0
-26 -40 -47 0
31 40 48 0
-31 -40 -48 0
36 40 49 0
-36 -40 -49 0
2 41 42 0
-2 -41 -42 0
7 41 43 0
-7 -41 -43 0
12 41 44 0
-12 -41 -44 0
17 41 45 0
-17 -41 -45 0
22 41 46 0
-22 -41 -46 0
27 41 47 0
-27 -41 -47 0
32 41 48 0
-32 -41 -48 0
37 41 49 0
-37 -41 -49 0
3 42 0
-3 -42 0
8 42 43 0
-8 -42 -43 0
13 42 44 0
-13 -42 -44 0
18 42 45 0
-18 -42 -45 0
23 42 46 0
-23 -42 -46 0
28 42 47 0
-28 -42 -47 0
33 42 48 0
-33 -42 -48 0
38 42 49 0
-38 -42 -49 0
4 42 43 0
-4 -42 -43 0
9 43 0
-9 -43 0
14 43 44 0
-14 -43 -44 0
19 43 45 0
-19 -43 -45 0
24 43 46 0
-24 -43 -46 0
29 43 47 0
-29 -43 -47 0
34 43 48 0
-34 -43 -48 0
39 43 49 0
-39 -43 -49 0
5 42 44 0
-5 -42 -44 0
10 43 44 0
-10 -43 -44 0
15 44 0
-15 -44 0
20 44 45 0
-20 -44 -45 0
25 44 46 0
-25 -44 -46 0
30 44 47 0
-30 -44 -47 0
35 44 48 0
-35 -44 -48 0
40 44 49 0
-40 -44 -49 0
1 41 45 0
-1 -41 -45 0
6 42 45 0
-6 -42 -45 0
11 43 45 0
-11 -43 -45 0
16 44 45 0
-16 -44 -45 0
21 45 0
-21 -45 0
26 45 46 0
-26 -45 -46 0
31 45 47 0
-31 -45 -47 0
36 45 48 0
-36 -45 -48 0
41 45 49 0
-41 -45 -49 0
2 41 46 0
-2 -41 -46 0
7 42 46 0
-7 -42 -46 0
12 43 46 0
-12 -43 -46 0
17 44 46 0
-17 -44 -46 0
22 45 46 0
-22 -45 -46 0
27 46 0
-27 -46 0
32 46 47 0
-32 -46 -47 0
37 46 48 0
-37 -46 -48 0
42 46 49 0
-42 -46 -49 0
3 41 47 0
-3 -41 -47 0
8 42 47 0
-8 -42 -47 0
13 43 47 0
-13 -43 -47 0
18 44 47 0
-18 -44 -47 0
23 45 47 0
-23 -45 -47 0
28 46 47 0
-28 -46 -47 0
33 47 0
-33 -47 0
38 47 48 0
-38 -47 -48 0
43 47 49 0
-43 -47 -49 0
4 41 48 0
-4 -41 -48 0
9 42 48 0
-9 -42 -48 0
14 43 48 0
-14 -43 -48 0
19 44 48 0
-19 -44 -48 0
24 45 48 0
-24 -45 -48 0
29 46 48 0
-29 -46 -48 0
34 47 48 0
-34 -47 -48 0
39 48 0
-39 -48 0
44 48 49 0
-44 -48 -49 0
5 41 49 0
-5 -41 -49 0
10 42 49 0
-10 -42 -49 0
15 43 49 0
-15 -43 -49 0
20 44 49 0
-20 -44 -49 0
25 45 49 0
-25 -45 -49 0
30 46 49 0
-30 -46 -49 0
35 47 49 0
-35 -47 -49 0
40 48 49 0
-40 -48 -49 0
45 49 0
-45 -49 0
