certificates/rado_a5_c249_N49.drat
-49 0
45 0
-21 0
17 0
25 0
-41 0
-1 0
37 0
5 0
-13 0
-29 0
9 0
33 0
0
